c uprop, v00.0, 
c reading from data/prog68.c.cnf
c done reading: 0.002093
p cnf 145 640
-50 -71 0
-50 -67 0
50 67 71 0
-44 67 71 0
-44 -67 -71 0
44 67 -71 0
44 -67 71 0
50 -62 0
-60 -62 0
-50 60 62 0
-50 -55 60 0
50 -55 -60 0
50 55 60 0
-50 55 -60 0
-51 62 0
-48 -51 0
48 51 -62 0
-46 48 -62 0
-46 -48 62 0
46 48 62 0
46 -48 -62 0
-45 51 0
-42 -45 0
42 45 -51 0
42 -51 -69 0
-42 51 -69 0
42 51 69 0
-42 -51 69 0
45 -73 0
-64 -73 0
-45 64 73 0
-45 64 -74 0
45 -64 -74 0
45 64 74 0
-45 -64 74 0
73 -75 0
-57 -75 0
57 -73 75 0
57 -73 -76 0
-57 73 -76 0
57 73 76 0
-57 -73 76 0
75 -77 0
-53 -77 0
53 -75 77 0
53 -75 -78 0
-53 75 -78 0
53 75 78 0
-53 -75 78 0
60 -79 0
71 -79 0
-60 -71 79 0
-60 -71 -80 0
60 71 -80 0
-60 71 80 0
60 -71 80 0
-48 -67 81 0
-48 -79 81 0
-67 -79 81 0
48 67 -81 0
48 79 -81 0
67 79 -81 0
48 -81 -82 0
67 -81 -82 0
79 -81 -82 0
-48 81 82 0
-67 81 82 0
-79 81 82 0
-48 -67 -79 82 0
48 67 79 -82 0
-42 -60 83 0
-42 -81 83 0
-60 -81 83 0
42 60 -83 0
42 81 -83 0
60 81 -83 0
42 -83 -84 0
60 -83 -84 0
81 -83 -84 0
-42 83 84 0
-60 83 84 0
-81 83 84 0
-42 -60 -81 84 0
42 60 81 -84 0
-48 -64 85 0
-64 -83 85 0
-48 -83 85 0
48 64 -85 0
64 83 -85 0
48 83 -85 0
-40 64 -85 0
-40 48 -85 0
-40 83 -85 0
40 -64 85 0
40 -48 85 0
40 -83 85 0
40 -48 -64 -83 0
-40 48 64 83 0
39 -42 -57 0
39 -57 -85 0
39 -42 -85 0
-39 42 57 0
-39 57 85 0
-39 42 85 0
-38 -39 57 0
-38 -39 42 0
-38 -39 85 0
38 39 -57 0
38 39 -42 0
38 39 -85 0
38 -42 -57 -85 0
-38 42 57 85 0
37 -53 -64 0
37 -39 -53 0
37 -39 -64 0
-37 53 64 0
-37 39 53 0
-37 39 64 0
-36 -37 53 0
-36 -37 64 0
-36 -37 39 0
36 37 -53 0
36 37 -64 0
36 37 -39 0
36 -39 -53 -64 0
-36 39 53 64 0
-35 57 0
-35 37 0
35 -37 -57 0
-37 -57 -70 0
37 57 -70 0
37 -57 70 0
-37 57 70 0
53 -66 0
35 -66 0
-35 -53 66 0
-35 -53 -59 0
35 53 -59 0
35 -53 59 0
-35 53 59 0
-47 82 0
-47 71 0
47 -71 -82 0
-41 -71 -82 0
-41 71 82 0
41 71 -82 0
41 -71 82 0
63 -67 -84 0
-47 63 -84 0
-47 63 -67 0
-63 67 84 0
47 -63 84 0
47 -63 67 0
-56 -63 84 0
-56 -63 67 0
47 -56 -63 0
56 63 -84 0
56 63 -67 0
-47 56 63 0
-47 56 -67 -84 0
47 -56 67 84 0
-40 52 -60 0
-40 52 -63 0
52 -60 -63 0
40 -52 60 0
40 -52 63 0
-52 60 63 0
-34 40 -52 0
-34 -52 60 0
-34 -52 63 0
34 -40 52 0
34 52 -60 0
34 52 -63 0
34 -40 -60 -63 0
-34 40 60 63 0
33 -38 -48 0
33 -38 -52 0
33 -48 -52 0
-33 38 48 0
-33 38 52 0
-33 48 52 0
-32 -33 38 0
-32 -33 48 0
-32 -33 52 0
32 33 -38 0
32 33 -48 0
32 33 -52 0
32 -38 -48 -52 0
-32 38 48 52 0
31 -36 -42 0
31 -33 -36 0
31 -33 -42 0
-31 36 42 0
-31 33 36 0
-31 33 42 0
-30 -31 36 0
-30 -31 42 0
-30 -31 33 0
30 31 -36 0
30 31 -42 0
30 31 -33 0
30 -33 -36 -42 0
-30 33 36 42 0
29 -64 -70 0
29 -31 -70 0
29 -31 -64 0
-29 64 70 0
-29 31 70 0
-29 31 64 0
-28 -29 70 0
-28 -29 64 0
-28 -29 31 0
28 29 -70 0
28 29 -64 0
28 29 -31 0
28 -31 -64 -70 0
-28 31 64 70 0
27 -57 -59 0
27 -29 -59 0
27 -29 -57 0
-27 57 59 0
-27 29 59 0
-27 29 57 0
-26 -27 59 0
-26 -27 57 0
-26 -27 29 0
26 27 -59 0
26 27 -57 0
26 27 -29 0
26 -29 -57 -59 0
-26 29 57 59 0
25 -53 -66 0
25 -27 -66 0
25 -27 -53 0
-25 53 66 0
-25 27 66 0
-25 27 53 0
-24 -25 66 0
-24 -25 53 0
-24 -25 27 0
24 25 -66 0
24 25 -53 0
24 25 -27 0
24 -27 -53 -66 0
-24 27 53 66 0
-23 -71 0
-23 -67 0
23 67 71 0
-22 67 71 0
-22 -67 -71 0
22 67 -71 0
22 -67 71 0
-21 23 0
-21 -80 0
21 -23 80 0
-20 -23 80 0
-20 23 -80 0
20 23 80 0
20 -23 -80 0
-19 21 0
-19 -41 0
19 -21 41 0
-21 41 -86 0
21 -41 -86 0
21 41 86 0
-21 -41 86 0
19 -87 0
-56 -87 0
-19 56 87 0
-19 56 -88 0
19 -56 -88 0
19 56 88 0
-19 -56 88 0
87 -89 0
-34 -89 0
34 -87 89 0
34 -87 -90 0
-34 87 -90 0
34 87 90 0
-34 -87 90 0
89 -91 0
-32 -91 0
32 -89 91 0
32 -89 -92 0
-32 89 -92 0
32 89 92 0
-32 -89 92 0
91 -93 0
-30 -93 0
30 -91 93 0
30 -91 -94 0
-30 91 -94 0
30 91 94 0
-30 -91 94 0
93 -95 0
-28 -95 0
28 -93 95 0
28 -93 -96 0
-28 93 -96 0
28 93 96 0
-28 -93 96 0
95 -97 0
-26 -97 0
26 -95 97 0
26 -95 -98 0
-26 95 -98 0
26 95 98 0
-26 -95 98 0
97 -99 0
-24 -99 0
24 -97 99 0
24 -97 -100 0
-24 97 -100 0
24 97 100 0
-24 -97 100 0
99 -101 0
-25 -101 0
25 -99 101 0
25 -99 -102 0
-25 99 -102 0
25 99 102 0
-25 -99 102 0
-103 -105 0
-105 -106 0
103 105 106 0
103 106 -108 0
-103 -106 -108 0
-103 106 108 0
103 -106 108 0
105 -109 0
-109 -110 0
-105 109 110 0
-105 110 -112 0
105 -110 -112 0
105 110 112 0
-105 -110 112 0
109 -113 0
-113 -114 0
-109 113 114 0
-109 114 -116 0
109 -114 -116 0
109 114 116 0
-109 -114 116 0
113 -117 0
-117 -118 0
-113 117 118 0
-113 118 -120 0
113 -118 -120 0
113 118 120 0
-113 -118 120 0
117 -121 0
-121 -122 0
-117 121 122 0
-117 122 -124 0
117 -122 -124 0
117 122 124 0
-117 -122 124 0
121 -125 0
-125 -126 0
-121 125 126 0
-121 126 -128 0
121 -126 -128 0
121 126 128 0
-121 -126 128 0
125 -129 0
-129 -130 0
-125 129 130 0
-125 130 -132 0
125 -130 -132 0
125 130 132 0
-125 -130 132 0
110 -133 0
103 -133 0
-103 -110 133 0
-103 -110 -134 0
103 110 -134 0
103 -110 134 0
-103 110 134 0
-106 -114 135 0
-114 -133 135 0
-106 -133 135 0
106 114 -135 0
114 133 -135 0
106 133 -135 0
114 -135 -136 0
106 -135 -136 0
133 -135 -136 0
-114 135 136 0
-106 135 136 0
-133 135 136 0
-106 -114 -133 136 0
106 114 133 -136 0
-110 -118 137 0
-118 -135 137 0
-110 -135 137 0
110 118 -137 0
118 135 -137 0
110 135 -137 0
118 -137 -138 0
110 -137 -138 0
135 -137 -138 0
-118 137 138 0
-110 137 138 0
-135 137 138 0
-110 -118 -135 138 0
110 118 135 -138 0
-114 -122 139 0
-122 -137 139 0
-114 -137 139 0
114 122 -139 0
122 137 -139 0
114 137 -139 0
122 -139 -140 0
114 -139 -140 0
137 -139 -140 0
-122 139 140 0
-114 139 140 0
-137 139 140 0
-114 -122 -137 140 0
114 122 137 -140 0
-118 -126 141 0
-126 -139 141 0
-118 -139 141 0
118 126 -141 0
126 139 -141 0
118 139 -141 0
126 -141 -142 0
118 -141 -142 0
139 -141 -142 0
-126 141 142 0
-118 141 142 0
-139 141 142 0
-118 -126 -139 142 0
118 126 139 -142 0
-122 -130 143 0
-130 -141 143 0
-122 -141 143 0
122 130 -143 0
130 141 -143 0
122 141 -143 0
130 -143 -144 0
122 -143 -144 0
141 -143 -144 0
-130 143 144 0
-122 143 144 0
-141 143 144 0
-122 -130 -141 144 0
122 130 141 -144 0
126 -145 0
143 -145 0
-126 -143 145 0
-72 -126 -143 0
-72 126 143 0
72 -126 143 0
72 126 -143 0
-68 130 0
-68 145 0
68 -130 -145 0
-61 -130 -145 0
-61 130 145 0
61 -130 145 0
61 130 -145 0
-49 -103 0
-49 -106 0
49 103 106 0
-43 103 106 0
-43 -103 -106 0
43 -103 106 0
43 103 -106 0
49 -65 0
-65 -134 0
-49 65 134 0
-49 -58 134 0
49 -58 -134 0
49 58 134 0
-49 58 -134 0
-54 65 0
-54 -136 0
54 -65 136 0
-65 -104 136 0
65 -104 -136 0
65 104 136 0
-65 104 -136 0
54 -107 0
-107 -138 0
-54 107 138 0
-54 -111 138 0
54 -111 -138 0
54 111 138 0
-54 111 -138 0
107 -115 0
-115 -140 0
-107 115 140 0
-107 -119 140 0
107 -119 -140 0
107 119 140 0
-107 119 -140 0
115 -123 0
-123 -142 0
-115 123 142 0
-115 -127 142 0
115 -127 -142 0
115 127 142 0
-115 127 -142 0
123 -131 0
-131 -144 0
-123 131 144 0
-18 -123 144 0
-18 123 -144 0
18 123 144 0
18 -123 -144 0
-17 131 0
-17 -72 0
17 72 -131 0
-16 72 -131 0
-16 -72 131 0
16 72 131 0
16 -72 -131 0
-15 17 0
-15 -61 0
15 -17 61 0
-14 -17 61 0
-14 17 -61 0
14 17 61 0
14 -17 -61 0
-13 15 0
-13 -68 0
13 -15 68 0
-12 -15 68 0
-12 15 -68 0
12 15 68 0
12 -15 -68 0
-11 71 0
-11 103 0
11 -71 -103 0
-71 103 0
71 -103 0
10 -67 -106 0
10 -11 -67 0
10 -11 -106 0
-10 67 106 0
-10 11 67 0
-10 11 106 0
10 -67 0
10 -106 0
10 -11 0
-11 -67 -106 0
9 -80 -134 0
9 -10 -80 0
9 -10 -134 0
-9 80 134 0
-9 10 80 0
-9 10 134 0
-9 80 0
-9 134 0
-9 10 0
10 80 134 0
8 -41 -136 0
8 -9 -41 0
8 -9 -136 0
-8 41 136 0
-8 9 41 0
-8 9 136 0
-8 41 0
-8 136 0
-8 9 0
9 41 136 0
7 -56 -138 0
7 -8 -56 0
7 -8 -138 0
-7 56 138 0
-7 8 56 0
-7 8 138 0
-7 56 0
-7 138 0
-7 8 0
8 56 138 0
6 -34 -140 0
6 -7 -34 0
6 -7 -140 0
-6 34 140 0
-6 7 34 0
-6 7 140 0
6 -34 0
6 -140 0
6 -7 0
-7 -34 -140 0
5 -32 -142 0
5 -6 -32 0
5 -6 -142 0
-5 32 142 0
-5 6 32 0
-5 6 142 0
5 -32 0
5 -142 0
5 -6 0
-6 -32 -142 0
4 -30 -144 0
4 -5 -30 0
4 -5 -144 0
-4 30 144 0
-4 5 30 0
-4 5 144 0
4 -30 0
4 -144 0
4 -5 0
-5 -30 -144 0
3 -28 -72 0
3 -4 -28 0
3 -4 -72 0
-3 28 72 0
-3 4 28 0
-3 4 72 0
3 -28 0
3 -72 0
3 -4 0
-4 -28 -72 0
2 -26 -61 0
2 -3 -26 0
2 -3 -61 0
-2 26 61 0
-2 3 26 0
-2 3 61 0
2 -26 0
2 -61 0
2 -3 0
-3 -26 -61 0
1 -24 -68 0
1 -2 -24 0
1 -2 -68 0
-1 24 68 0
-1 2 24 0
-1 2 68 0
1 -24 0
1 -68 0
1 -2 0
-2 -24 -68 0
-1 -25 0
1 -25 0
-1 25 0
